38
13
0 14 16 17 18 19 20 22 24 26 28 29 30 31 32 33 34 35 36 37
1 14 16 18 20 24 25 26 28 30 31 32 34 35 36 37
2 14 16 17 18 20 21 24 26 27 32 34 36 37
3 16 18 19 20 21 25 26 27 28 32 33 34 35 36 37
4 13 14 16 18 19 20 21 22 24 25 26 27 28 29 30 32 35
5 14 18 19 21 24 27 30 32 33 35 36 37
6 14 17 20 21 22 25 28 30 32 35
7 14 19 22 24 27 28 29 32 35 37
8 14 21 22 23 29 30 31 32 37
9 15 23 32 37
10 13 27
11 25 26 27 33 36
12
